NAME : kroE100-C-5-1-a__baseline_same_priority_ls20__27046.tour
COMMENT : Length = 27046.000
COMMENT : Generated by evaluate_ctspd.py for baseline_same_priority_ls20
TYPE : TOUR
DIMENSION : 100
TOUR_SECTION
8
52
14
44
72
89
81
71
61
1
74
21
7
35
40
25
54
45
99
17
84
49
56
20
15
23
28
36
59
95
64
62
63
58
32
12
76
98
51
69
83
47
3
46
26
79
16
73
88
97
50
60
10
80
57
9
31
65
19
94
18
24
29
100
78
53
34
37
77
85
6
70
96
11
2
4
82
67
87
41
27
92
75
13
66
30
93
55
91
39
43
86
22
33
38
68
48
90
42
5
-1
EOF
